Optimal - objective value 9.00000000
      0 x_0_0                       1                       1
      2 x_1_1                       1                       1
      5 x_2_2                       1                       1
      6 x_3_0                       1                       0
     14 x_4_4                       1                       1
     20 x_5_5                       1                       1
     27 x_6_6                       1                       0
     29 x_7_1                       1                       0
     38 x_8_2                       1                       0
     51 x_9_6                       1                       0
     61 x_10_6                      1                       0
     66 x_11_0                      1                      -1
     83 x_12_5                      1                       0
    104 x_13_13                     1                       0
    119 x_14_14                     1                       1
    135 x_15_15                     1                       1
    137 x_16_1                      1                      -1
    155 x_17_2                      1                       0
    185 x_18_14                     1                       0
    203 x_19_13                     1                       1
    223 x_20_13                     1                       0
    236 x_21_5                      1                       0
    259 x_22_6                      1                       0
    290 x_23_14                     1                       0
    315 x_24_15                     1                       0
    329 x_25_4                      1                       0
    366 x_26_15                     1                       0
    380 x_27_2                      1                       0
    410 x_28_4                      1                       0
    450 x_29_15                     1                       0
    465 x_30_0                      1                       0
    501 x_31_5                      1                       0
    542 x_32_14                     1                       0
    576 x_33_15                     1                       0
    601 x_34_6                      1                       0
    643 x_35_13                     1                       0
    668 x_36_2                      1                       0
    709 x_37_6                      1                       0
    743 x_38_2                      1                       0
    781 x_39_1                      1                       0
    834 x_40_14                     1                       0
    866 x_41_5                      1                       0
    907 x_42_4                      1                       0
    961 x_43_15                     1                      -1
    994 x_44_4                      1                       0
   1048 x_45_13                     1                       0
   1094 x_46_13                     1                       0
   1133 x_47_5                      1                       0
   1180 x_48_4                      1                       0
   1231 x_49_6                      1                       0
   1276 x_50_1                      1                       0
   1328 x_51_2                      1                       0
   1378 x_52_0                      1                       0
   1446 x_53_15                     1                       0
   1489 x_54_4                      1                       0
   1553 x_55_13                     1                       0
